(declare-const X String)
; /filename=[^\n]*\x2easf/i
(assert (str.in_re X (re.++ (str.to_re "/filename=") (re.* (re.comp (str.to_re "\u{a}"))) (str.to_re ".asf/i\u{a}"))))
; /^\x01\x02.{0,50}[a-zA-Z]{10}\x2fPK.{0,50}[a-zA-Z]{10}\x2f[a-zA-Z]{7}\.classPK/sR
(assert (not (str.in_re X (re.++ (str.to_re "/\u{1}\u{2}") ((_ re.loop 0 50) re.allchar) ((_ re.loop 10 10) (re.union (re.range "a" "z") (re.range "A" "Z"))) (str.to_re "/PK") ((_ re.loop 0 50) re.allchar) ((_ re.loop 10 10) (re.union (re.range "a" "z") (re.range "A" "Z"))) (str.to_re "/") ((_ re.loop 7 7) (re.union (re.range "a" "z") (re.range "A" "Z"))) (str.to_re ".classPK/sR\u{a}")))))
; /filename=[^\n]*\x2ette/i
(assert (not (str.in_re X (re.++ (str.to_re "/filename=") (re.* (re.comp (str.to_re "\u{a}"))) (str.to_re ".tte/i\u{a}")))))
; /\/vic\.aspx\?ver=\d\.\d\.\d+\.\d\x26rnd=\d{5}/Ui
(assert (not (str.in_re X (re.++ (str.to_re "//vic.aspx?ver=") (re.range "0" "9") (str.to_re ".") (re.range "0" "9") (str.to_re ".") (re.+ (re.range "0" "9")) (str.to_re ".") (re.range "0" "9") (str.to_re "&rnd=") ((_ re.loop 5 5) (re.range "0" "9")) (str.to_re "/Ui\u{a}")))))
(check-sat)

(exit)
